<number of tasks>
50

<cycle time>
1000

<order strength>
0.598


<task times>
1 143
2 31
3 112
4 120
5 86
6 118
7 265
8 71
9 84
10 181
11 137
12 122
13 162
14 54
15 120
16 139
17 184
18 196
19 227
20 231
21 273
22 76
23 66
24 70
25 125
26 130
27 136
28 135
29 124
30 114
31 73
32 112
33 273
34 26
35 182
36 135
37 114
38 224
39 265
40 70
41 187
42 83
43 67
44 119
45 155
46 77
47 238
48 185
49 86
50 162

<precedence relations>
1,5
1,15
1,16
2,6
3,6
4,9
4,14
5,7
6,8
6,9
6,14
7,14
8,12
9,10
9,11
9,13
9,15
9,16
10,18
11,19
12,20
13,17
13,22
14,21
14,22
15,21
15,22
16,21
16,22
17,23
18,24
19,25
20,24
21,24
21,25
21,26
22,24
22,25
22,26
23,27
24,28
24,29
24,30
25,28
25,29
26,28
26,30
27,33
28,31
28,34
28,35
29,32
29,34
29,35
30,44
31,37
32,38
33,36
34,39
34,46
35,40
35,44
36,41
37,44
38,43
39,42
40,45
40,46
41,48
42,47
43,48
46,48
46,49
46,50

<end>
